src/utils/lkh_mtsp_solver/resource/amtsp_1.atsp
NAME : amtsp
TYPE : ATSP
DIMENSION : 8
EDGE_WEIGHT_TYPE : EXPLICIT
EDGE_WEIGHT_FORMAT : FULL_MATRIX
EDGE_WEIGHT_SECTION
100000 -100000 100000 100000 100000 100000 100000 100000 
100000 100000 620 678 700 840 379 100000 
0 0 100000 182 348 852 450 1113 
0 0 182 100000 355 786 567 726 
0 0 348 355 100000 674 605 838 
0 0 852 786 674 100000 683 1395 
0 0 450 567 605 683 100000 1492 
-100000 100000 1113 726 838 1395 1492 100000 
