src/utils/lkh_mtsp_solver/resource/amtsp_1.tour
NAME : amtsp.-196146.tour
COMMENT : Length = -196146
COMMENT : Found by LKH [Keld Helsgaun] Sat Jun  6 14:45:04 2026
TYPE : TOUR
DIMENSION : 10
TOUR_SECTION
1
2
7
9
8
4
3
5
6
10
-1
EOF
